12 16 6 10
11 16 9 10 17 8 18 10 14 14 15 6 5 17 17 5 
3.85 5.5 4.96 15.11 0.13 0.98 10.69 13.55 5.51 10.16 1.18 3.13 15.7 10.42 6.71 11.86 
12.38 0.95 13.14 0.26 10.03 10.1 4.42 8.15 0.02 0.05 4.56 11.91 1.04 1.81 9.09 2.86 
9.22 7.44 5.69 4.07 3.95 2.07 10.78 2.78 14.42 4.81 15.35 10.66 12.94 4.14 4.92 10.08 
6.47 14.78 13.81 3.03 12.92 3.91 10.9 8.58 1.04 1.35 6.48 11.89 10.9 13.52 2.43 5.08 
12.25 1.5 13.73 8.54 2.19 0.32 9.38 14.49 7.53 1.98 3.41 15.06 9.98 2.1 11.59 5.15 
14.73 0.57 14.27 4.29 7.02 6.66 5.9 1.76 7.58 15.59 3 6.04 0.99 13.13 14.19 10.23 
8 8 8 8 8 8 8 8 8 8 8 8 8 8 8 8 
3.45 12.07 6.1 15.75 9.31 0.77 7.7 9.94 6.68 7.09 10.65 2.85 13.52 2.11 13.02 15.7 
8 9.64 14.93 0.04 11.86 3.89 4.79 9.92 2.63 7.54 12.93 10.72 5.57 4.66 9.73 8.59 
5.22 6.01 7.69 4.53 7.88 7.36 12.79 0.21 13.71 5.59 2.03 1.76 9.07 13.67 15.44 3.66 
6.93 1.02 5.5 15.66 6.43 9.29 7.68 6.81 14.02 4.04 15.02 14.18 13.26 12.14 2.54 2.93 
5.21 1.55 1.64 4.45 3.4 5.63 5 12.06 2.57 5.66 9.23 4.14 1.32 10.54 11.25 15.98 
1 1 1 1 1 1 1 1 1 1 1 1 1 1 1 1 
1 1 1 1 1 1 1 1 1 1 1 1 1 1 1 1 
1 1 1 1 1 1 1 1 1 1 1 1 1 1 1 1 
1 1 1 1 1 1 1 1 1 1 1 1 1 1 1 1 
1 1 1 1 1 1 1 1 1 1 1 1 1 1 1 1 
1 1 1 1 1 1 1 1 1 1 1 1 1 1 1 1 
1 1 1 1 1 1 1 1 1 1 1 1 1 1 1 1 
1 1 1 1 1 1 1 1 1 1 1 1 1 1 1 1 
1 1 1 1 1 1 1 1 1 1 1 1 1 1 1 1 
1 1 1 1 1 1 1 1 1 1 1 1 1 1 1 1 
1 1 1 1 1 1 1 1 1 1 1 1 1 1 1 1 
1 1 1 1 1 1 1 1 1 1 1 1 1 1 1 1 
0.01 0.01 0.01 0.01 0.01 0.01 0.01 0.01 0.01 0.01 0.01 0.01 0.01 0.01 0.01 0.01 
0.02 0.02 0.02 0.02 0.02 0.02 0.02 0.02 0.02 0.02 0.02 0.02 0.02 0.02 0.02 0.02 
0.03 0.03 0.03 0.03 0.03 0.03 0.03 0.03 0.03 0.03 0.03 0.03 0.03 0.03 0.03 0.03 
0.04 0.04 0.04 0.04 0.04 0.04 0.04 0.04 0.04 0.04 0.04 0.04 0.04 0.04 0.04 0.04 
0.05 0.05 0.05 0.05 0.05 0.05 0.05 0.05 0.05 0.05 0.05 0.05 0.05 0.05 0.05 0.05 
0.06 0.06 0.06 0.06 0.06 0.06 0.06 0.06 0.06 0.06 0.06 0.06 0.06 0.06 0.06 0.06 
0.07 0.07 0.07 0.07 0.07 0.07 0.07 0.07 0.07 0.07 0.07 0.07 0.07 0.07 0.07 0.07 
0.2 0.2 0.2 0.2 0.2 0.2 0.2 0.2 0.2 0.2 0.2 0.2 0.2 0.2 0.2 0.2 
0.4 0.4 0.4 0.4 0.4 0.4 0.4 0.4 0.4 0.4 0.4 0.4 0.4 0.4 0.4 0.4 
0.6 0.6 0.6 0.6 0.6 0.6 0.6 0.6 0.6 0.6 0.6 0.6 0.6 0.6 0.6 0.6 
0.8 0.8 0.8 0.8 0.8 0.8 0.8 0.8 0.8 0.8 0.8 0.8 0.8 0.8 0.8 0.8 
1 1 1 1 1 1 1 1 1 1 1 1 1 1 1 1 
